Version identifier: 12.10.0.0 | 2019-11-26 | 843d4de
CPXPARAM_WorkMem                                 16384
CPXPARAM_MIP_Limits_TreeMemory                   24576
Tried aggregator 2 times.
MIP Presolve modified 30 coefficients.
Aggregator did 20 substitutions.
Reduced MIP has 73 rows, 90 columns, and 336 nonzeros.
Reduced MIP has 90 binaries, 0 generals, 0 SOSs, and 0 indicators.
Presolve time = 0,00 sec. (0,43 ticks)
Found incumbent of value 1302,000000 after 0,00 sec. (0,73 ticks)
Probing time = 0,00 sec. (0,10 ticks)
Tried aggregator 1 time.
Detecting symmetries...
MIP Presolve eliminated 9 rows and 0 columns.
MIP Presolve added 18 rows and 0 columns.
Reduced MIP has 82 rows, 90 columns, and 345 nonzeros.
Reduced MIP has 90 binaries, 0 generals, 0 SOSs, and 0 indicators.
Presolve time = 0,00 sec. (0,40 ticks)
Probing time = 0,00 sec. (0,10 ticks)
Clique table members: 226.
MIP emphasis: balance optimality and feasibility.
MIP search method: dynamic search.
Parallel mode: deterministic, using up to 16 threads.
Root relaxation solution time = 0,00 sec. (0,17 ticks)

        Nodes                                         Cuts/
   Node  Left     Objective  IInf  Best Integer    Best Bound    ItCnt     Gap

*     0+    0                         1302,0000        0,0000           100,00%
*     0+    0                         1020,0000        0,0000           100,00%
*     0+    0                          981,0000        0,0000           100,00%
      0     0      434,0000    55      981,0000      434,0000       29   55,76%
      0     0      434,0000    55      981,0000     Cuts: 100       53   55,76%
      0     0      434,0000    55      981,0000     Cuts: 107       78   55,76%
*     0+    0                          945,0000      434,0000            54,07%
      0     2      492,0071    44      945,0000      476,2333      101   49,60%
Elapsed time = 0,06 sec. (8,12 ticks, tree = 0,02 MB, solutions = 4)

Clique cuts applied:  25
Cover cuts applied:  98
Implied bound cuts applied:  2
Zero-half cuts applied:  1

Root node processing (before b&c):
  Real time             =    0,05 sec. (8,08 ticks)
Parallel b&c, 16 threads:
  Real time             =    0,11 sec. (11,36 ticks)
  Sync time (average)   =    0,09 sec.
  Wait time (average)   =    0,00 sec.
                          ------------
Total (root+branch&cut) =    0,16 sec. (19,44 ticks)
